WARNING: for repeatability, setting FPU to use double precision
============================[ Problem Statistics ]=============================
|                                                                             |
|  Number of variables:            50                                         |
|  Number of clauses:             218                                         |
|  Parse time:                   0.00 s                                       |
|                                                                             |
============================[ Search Statistics ]==============================
| Conflicts |          ORIGINAL         |          LEARNT          | Progress |
|           |    Vars  Clauses Literals |    Limit  Clauses Lit/Cl |          |
===============================================================================
===============================================================================
restarts              : 1
conflicts             : 52             (34876 /sec)
decisions             : 64             (0.00 % random) (42924 /sec)
propagations          : 788            (528504 /sec)
conflict literals     : 216            (10.37 % deleted)
Memory used           : 20.00 MB
CPU time              : 0.001491 s

SATISFIABLE
